; benchmark generated from python API
(set-info :status unknown)
(declare-datatypes ((RealState 0)) (((RMk1 (rval1 Real)) (RMk2 (rval2 Real)))))
 (assert
 (exists ((|v11:0_st| RealState) (val!4556 Real) )(exists ((|v10:1_st| RealState) (val!4557 Real) )(exists ((|v9:2_st| RealState) (val!4558 Real) )(exists ((|v8:3_st| RealState) (val!4559 Real) )(forall ((|v7:4| Real) )(forall ((|v6:5| Real) )(forall ((|v5:6| Real) )(forall ((|v4:7| Real) )(exists ((|v3:8_st| RealState) (val!4560 Real) )(exists ((|v2:9_st| RealState) (val!4561 Real) )(exists ((|v1:10_st| RealState) (val!4562 Real) )(exists ((|v0:11_st| RealState) (val!4563 Real) )(let ((?x1642 (- 18.0)))
 (let ((?x2160 (* ?x1642 |v5:6|)))
 (let ((?x496 (- 19.0)))
 (let ((?x1939 (* ?x496 |v6:5|)))
 (let ((?x3425 (+ (+ (+ (* (- 11.0) (rval2 |v8:3_st|)) (* (- 15.0) |v6:5|)) ?x1939) ?x2160)))
 (let ((?x3044 (- 20.0)))
 (let ((?x846 (* 18.0 |v5:6|)))
 (let ((?x1379 (+ (+ (* 15.0 (rval2 |v9:2_st|)) (* (- 10.0) |v4:7|)) (* 8.0 (rval2 |v1:10_st|)))))
 (let ((?x2387 (- 1.0)))
 (let ((?x3147 (rval2 |v9:2_st|)))
 (let ((?x2503 (- 3.0)))
 (let ((?x277 (* ?x2503 ?x3147)))
 (let ((?x1422 (+ (+ (* ?x1642 (rval2 |v1:10_st|)) (* 5.0 (rval2 |v2:9_st|))) (* 10.0 ?x3147))))
 (let ((?x2579 (* 3.0 |v4:7|)))
 (let ((?x2397 (rval2 |v3:8_st|)))
 (let ((?x1688 (* 19.0 ?x2397)))
 (let (($x3216 (<= (+ (+ (+ (* ?x2387 (rval2 |v10:1_st|)) (* 5.0 (rval2 |v2:9_st|))) ?x1688) ?x2579) 2.0)))
 (let (($x2903 (and (and $x3216 (<= (+ ?x1422 ?x277) ?x2387)) (and (<= (+ ?x1379 ?x846) ?x3044) (<= ?x3425 13.0)))))
 (let ((?x2648 (- 8.0)))
 (let ((?x607 (+ (+ (* (- 16.0) |v7:4|) (* 2.0 (rval2 |v0:11_st|))) (* ?x1642 (rval2 |v0:11_st|)))))
 (let ((?x71 (- 9.0)))
 (let ((?x220 (rval2 |v11:0_st|)))
 (let ((?x990 (* 18.0 ?x220)))
 (let ((?x325 (+ (+ (* (- 10.0) ?x3147) (* 18.0 |v6:5|)) (* (- 11.0) (rval2 |v10:1_st|)))))
 (let (($x3096 (and (<= (+ ?x325 ?x990) ?x71) (<= (+ ?x607 (* (- 12.0) (rval2 |v2:9_st|))) ?x2648))))
 (let ((?x961 (- 2.0)))
 (let ((?x3071 (rval2 |v8:3_st|)))
 (let ((?x3279 (* 8.0 ?x3071)))
 (let ((?x1026 (+ (+ (+ (* 17.0 ?x3147) (* 7.0 |v7:4|)) (* (- 4.0) ?x2397)) ?x3279)))
 (let ((?x2749 (- 17.0)))
 (let ((?x1997 (* ?x2749 |v5:6|)))
 (let ((?x2543 (+ (+ (+ (* 18.0 (rval2 |v1:10_st|)) (* 0.0 |v7:4|)) (* 16.0 ?x220)) ?x1997)))
 (let ((?x2590 (+ (+ (+ (* (- 16.0) ?x3147) (* ?x496 |v4:7|)) (* 2.0 ?x3071)) (* 8.0 |v5:6|))))
 (let ((?x1477 (- 5.0)))
 (let ((?x567 (* 12.0 ?x3147)))
 (let ((?x189 (+ (+ (+ (* 2.0 ?x220) (* (- 15.0) (rval2 |v2:9_st|))) (* 11.0 |v4:7|)) ?x567)))
 (let ((?x3138 (rval2 |v1:10_st|)))
 (let ((?x1059 (* 7.0 ?x3138)))
 (let ((?x223 (+ (+ (+ (* ?x2749 (rval2 |v10:1_st|)) (* 2.0 |v4:7|)) (* (- 14.0) ?x3147)) ?x1059)))
 (let ((?x2572 (- 4.0)))
 (let ((?x81 (+ (+ (+ (* ?x1642 ?x220) (* ?x2503 (rval2 |v10:1_st|))) (* ?x961 ?x3147)) (* ?x2387 ?x220))))
 (let (($x2456 (and (and (<= ?x81 ?x2572) (<= ?x223 7.0)) (and (<= ?x189 ?x1477) (<= ?x2590 ?x3044)))))
 (let ((?x2096 (- 10.0)))
 (let ((?x2308 (* ?x2096 |v6:5|)))
 (let ((?x2810 (+ (+ (+ (* ?x2096 ?x3071) (* (- 15.0) |v7:4|)) (* (- 16.0) ?x3147)) ?x2308)))
 (let ((?x2946 (- 12.0)))
 (let ((?x721 (rval2 |v0:11_st|)))
 (let ((?x339 (* 19.0 ?x721)))
 (let ((?x671 (+ (+ (+ (* ?x2503 |v4:7|) (* 5.0 (rval2 |v2:9_st|))) (* 10.0 |v4:7|)) ?x339)))
 (let ((?x1904 (* 8.0 |v4:7|)))
 (let ((?x564 (+ (+ (+ (* ?x496 ?x3147) (* ?x2503 (rval2 |v10:1_st|))) (* 13.0 (rval2 |v10:1_st|))) ?x1904)))
 (let ((?x1633 (- 7.0)))
 (let (($x2811 (<= (+ (+ (+ (* (- 6.0) |v5:6|) (* ?x3044 |v7:4|)) ?x1059) (* 5.0 ?x3071)) ?x1633)))
 (let (($x3409 (and (and $x2811 (<= ?x564 ?x2503)) (and (<= ?x671 ?x2946) (<= ?x2810 18.0)))))
 (let (($x3433 (and (and $x3409 $x2456) (and (and (and (<= ?x2543 ?x71) (<= ?x1026 ?x961)) $x3096) $x2903))))
 (let ((?x1295 (+ (+ (+ (* ?x2096 |v7:4|) (* 11.0 |v5:6|)) (* 6.0 |v5:6|)) (* ?x2572 |v5:6|))))
 (let (($x2042 (<= (+ (+ (+ (* 5.0 ?x721) (* ?x2387 ?x2397)) ?x567) (* ?x2572 ?x220)) ?x496)))
 (let ((?x1339 (+ (+ (+ (* 3.0 ?x3147) (* 16.0 (rval2 |v10:1_st|))) (* ?x2648 ?x3071)) (* (- 11.0) (rval2 |v2:9_st|)))))
 (let ((?x2405 (* 17.0 ?x2397)))
 (let (($x3383 (<= (+ (+ (+ (* 2.0 |v4:7|) (* ?x1642 |v6:5|)) (* (- 15.0) |v5:6|)) ?x2405) 13.0)))
 (let ((?x1881 (* 18.0 ?x3138)))
 (let ((?x2655 (+ (+ (+ (* ?x2096 ?x3071) (* (- 6.0) ?x3147)) (* (- 6.0) ?x220)) ?x1881)))
 (let (($x2513 (<= (+ (+ (+ (* ?x3044 ?x2397) (* ?x1477 ?x3071)) ?x277) (* 9.0 ?x3147)) 14.0)))
 (let ((?x3208 (* 13.0 |v6:5|)))
 (let ((?x273 (rval2 |v2:9_st|)))
 (let ((?x2372 (* ?x496 ?x273)))
 (let ((?x105 (+ (+ (+ (* ?x2946 ?x3138) (* ?x2503 ?x3071)) (* 6.0 (rval2 |v10:1_st|))) (* ?x2648 ?x273))))
 (let (($x1061 (and (<= ?x105 0.0) (<= (+ (+ (+ (* 11.0 ?x273) (* 20.0 |v5:6|)) ?x2372) ?x3208) 17.0))))
 (let (($x2849 (and (or $x1061 (and $x2513 (<= ?x2655 ?x496))) (or (and $x3383 (<= ?x1339 2.0)) (and $x2042 (<= ?x1295 4.0))))))
 (let ((?x658 (* 5.0 |v6:5|)))
 (let (($x53 (<= (+ (+ (+ (* ?x2749 ?x2397) (* ?x3044 ?x220)) (* (- 6.0) |v6:5|)) ?x658) 15.0)))
 (let ((?x534 (+ (+ (+ (* 6.0 ?x2397) (* 16.0 ?x2397)) (* ?x961 ?x3138)) (* ?x2503 ?x220))))
 (let ((?x1722 (* 17.0 ?x3071)))
 (let (($x2037 (<= (+ (+ (+ (* 19.0 |v4:7|) (* 8.0 ?x2397)) (* ?x2096 ?x3147)) ?x1722) ?x1633)))
 (let ((?x1774 (- 11.0)))
 (let ((?x3468 (* ?x1774 ?x3071)))
 (let ((?x1398 (+ (+ (+ (* 6.0 (rval2 |v10:1_st|)) (* 2.0 ?x721)) (* ?x71 ?x3071)) ?x3468)))
 (let (($x2195 (<= (+ (+ (+ (* 18.0 ?x2397) ?x2579) (* ?x496 ?x3138)) (* 13.0 |v7:4|)) ?x1477)))
 (let ((?x1147 (+ (+ (+ (* 14.0 |v5:6|) (* 8.0 ?x2397)) (* 11.0 |v5:6|)) (* ?x2096 ?x273))))
 (let (($x1764 (<= (+ (+ (+ (* 17.0 |v7:4|) |v6:5|) (* ?x2749 ?x3147)) (* 6.0 |v6:5|)) 20.0)))
 (let ((?x933 (* ?x2387 ?x2397)))
 (let ((?x2658 (+ (+ (+ (* 16.0 ?x273) (* ?x2572 (rval2 |v10:1_st|))) (* (- 15.0) ?x3147)) ?x933)))
 (let (($x3036 (and (and (and (<= ?x2658 12.0) $x1764) (and (<= ?x1147 ?x496) $x2195)) (and (and (<= ?x1398 ?x2572) $x2037) (and (<= ?x534 8.0) $x53)))))
 (let ((?x2091 (+ (+ (+ (* 8.0 ?x273) (* ?x1633 |v5:6|)) (* 18.0 (rval2 |v10:1_st|))) ?x2372)))
 (let ((?x2834 (+ (+ (+ (* 7.0 ?x273) (* ?x2387 (rval2 |v10:1_st|))) (* ?x2387 (rval2 |v10:1_st|))) (* (- 13.0) ?x3071))))
 (let ((?x1303 (* ?x2387 |v6:5|)))
 (let (($x1071 (<= (+ (+ (+ (* 0.0 |v6:5|) (* 7.0 ?x3147)) (* 7.0 ?x3071)) ?x1303) 17.0)))
 (let ((?x1196 (* ?x496 ?x3147)))
 (let (($x2114 (<= (+ (+ (+ (* ?x2648 |v4:7|) (* ?x2096 |v5:6|)) (* ?x71 ?x3147)) ?x1196) ?x2946)))
 (let ((?x2250 (rval2 |v10:1_st|)))
 (let ((?x171 (* 12.0 ?x2250)))
 (let (($x3046 (<= (+ (+ (+ (* ?x2572 ?x3071) (* ?x2096 ?x3147)) (* 13.0 ?x721)) ?x171) ?x961)))
 (let ((?x977 (- 6.0)))
 (let ((?x2347 (* ?x977 ?x273)))
 (let (($x2796 (<= (+ (+ (+ ?x2250 (* 4.0 |v7:4|)) (* (- 13.0) |v5:6|)) ?x2347) ?x2946)))
 (let (($x373 (<= (+ (+ (+ (* ?x2946 ?x3071) ?x1059) (* 0.0 ?x220)) (* 18.0 ?x2397)) 0.0)))
 (let ((?x2760 (* 5.0 ?x721)))
 (let (($x2164 (<= (+ (+ (+ (* ?x2648 ?x721) (* 3.0 ?x3147)) (* 11.0 ?x3147)) ?x2760) ?x71)))
 (let (($x1473 (or (and (and $x2164 $x373) (and $x2796 $x3046)) (and (and $x2114 $x1071) (and (<= ?x2834 13.0) (<= ?x2091 9.0))))))
 (let ((?x420 (+ (+ (+ (* 18.0 ?x273) (* 20.0 ?x273)) (* ?x2387 ?x721)) (* (- 16.0) ?x273))))
 (let ((?x2690 (+ (+ (+ (* 16.0 ?x3147) |v5:6|) (* 6.0 |v4:7|)) (* (- 13.0) ?x721))))
 (let ((?x780 (* ?x1642 |v6:5|)))
 (let (($x3131 (<= (+ (+ (+ (* 7.0 ?x220) (* 17.0 |v7:4|)) (* ?x3044 ?x3138)) ?x780) 15.0)))
 (let ((?x889 (* 18.0 ?x3147)))
 (let (($x1717 (<= (+ (+ (+ (* ?x3044 |v5:6|) (* 2.0 ?x3138)) (* 6.0 ?x721)) ?x889) ?x1477)))
 (let ((?x943 (+ (+ (+ (* ?x977 ?x2250) (* ?x2572 ?x3071)) (* ?x1642 ?x3147)) (* 0.0 |v4:7|))))
 (let ((?x2850 (* ?x1477 ?x3138)))
 (let (($x3164 (<= (+ (+ (+ (* 4.0 |v7:4|) (* 15.0 ?x3147)) (* 16.0 ?x3147)) ?x2850) 5.0)))
 (let ((?x532 (+ (+ (+ (* ?x2946 ?x2397) (* ?x496 |v5:6|)) (* ?x496 ?x2250)) (* (- 14.0) ?x273))))
 (let ((?x1319 (- 13.0)))
 (let (($x1515 (<= (+ (+ (+ (* 13.0 ?x721) (* 11.0 ?x3138)) (* ?x961 ?x220)) ?x2308) ?x1319)))
 (let (($x820 (and (and (or $x1515 (<= ?x532 6.0)) (and $x3164 (<= ?x943 11.0))) (and (and $x1717 $x3131) (and (<= ?x2690 ?x496) (<= ?x420 14.0))))))
 (let (($x1488 (<= (+ (+ (+ (* ?x71 ?x2250) (* ?x2572 ?x2397)) ?x658) (* ?x1633 ?x3071)) 5.0)))
 (let ((?x3003 (* ?x961 ?x220)))
 (let (($x2955 (<= (+ (+ (+ (* ?x2946 |v7:4|) (* 5.0 ?x3071)) (* ?x2572 ?x2250)) ?x3003) 17.0)))
 (let (($x1572 (<= (+ (+ (+ ?x277 (* 11.0 |v4:7|)) (* (- 14.0) |v4:7|)) (* ?x1319 ?x2250)) 7.0)))
 (let (($x1122 (and $x1572 (<= (+ (+ (+ ?x1688 (* 11.0 ?x721)) (* ?x1633 ?x2250)) ?x1722) ?x977))))
 (let ((?x1438 (* ?x961 |v4:7|)))
 (let (($x3241 (<= (+ (+ (+ (* ?x2648 ?x3147) (* ?x1774 |v6:5|)) (* 18.0 |v4:7|)) ?x1438) 13.0)))
 (let ((?x735 (* 7.0 ?x3147)))
 (let (($x1104 (<= (+ (+ (+ (* ?x1477 |v7:4|) (* ?x961 ?x3071)) (* (- 16.0) ?x220)) ?x735) ?x1774)))
 (let (($x1646 (<= (+ (+ (+ (* 20.0 |v5:6|) (* 5.0 ?x220)) ?x567) (* ?x2749 ?x273)) 20.0)))
 (let (($x102 (<= (+ (+ (+ (* (- 14.0) |v5:6|) (* ?x3044 ?x3138)) (* 20.0 ?x3138)) ?x2850) ?x2572)))
 (let (($x922 (and (and (and $x102 $x1646) (and $x1104 $x3241)) (and $x1122 (and $x2955 $x1488)))))
 (let ((?x2072 (- 14.0)))
 (let ((?x1138 (* 10.0 |v7:4|)))
 (let (($x1427 (<= (+ (+ (+ (* ?x2749 ?x721) (* ?x496 ?x2250)) (* 6.0 |v4:7|)) ?x1138) ?x2072)))
 (let (($x1759 (<= (+ (+ (+ ?x2347 (* ?x961 |v7:4|)) (* 9.0 |v6:5|)) (* ?x1477 ?x3147)) 17.0)))
 (let ((?x1709 (- 16.0)))
 (let (($x737 (<= (+ (+ (+ (* 13.0 ?x273) (* ?x2749 ?x2250)) ?x889) (* ?x1477 ?x3071)) ?x1709)))
 (let ((?x3194 (* 6.0 |v5:6|)))
 (let ((?x3316 (+ (+ (+ (* 8.0 ?x273) (* 10.0 ?x3071)) (* (- 15.0) ?x721)) ?x3194)))
 (let ((?x2213 (* ?x2946 |v4:7|)))
 (let (($x2274 (<= (+ (+ (+ (* ?x1709 ?x721) (* ?x71 ?x3071)) (* 19.0 ?x273)) ?x2213) ?x1709)))
 (let ((?x2289 (* 10.0 |v4:7|)))
 (let (($x3417 (<= (+ (+ (+ (* 6.0 ?x3071) (* 4.0 ?x721)) (* ?x1319 ?x2397)) ?x2289) 17.0)))
 (let ((?x2799 (* 18.0 ?x721)))
 (let (($x2994 (<= (+ (+ (+ (* 3.0 |v5:6|) (* 11.0 ?x273)) (* 18.0 |v4:7|)) ?x2799) ?x1633)))
 (let ((?x518 (* ?x2096 ?x3147)))
 (let (($x3053 (<= (+ (+ (+ (* ?x71 ?x2397) (* 13.0 |v7:4|)) (* 18.0 |v7:4|)) ?x518) ?x3044)))
 (let (($x449 (and (and (and $x3053 $x2994) (and $x3417 $x2274)) (and (and (<= ?x3316 ?x1642) $x737) (and $x1759 $x1427)))))
 (let (($x2477 (and (and (and $x449 $x922) (and $x820 $x1473)) (and (and $x3036 $x2849) $x3433))))
 (let (($x1161 (not (= |v0:11_st| (RMk1 val!4563)))))
 (let (($x1272 (not (= |v1:10_st| (RMk1 val!4562)))))
 (let (($x1346 (not (= |v2:9_st| (RMk1 val!4561)))))
 (let (($x2005 (not (= |v3:8_st| (RMk1 val!4560)))))
 (let (($x1367 (not (= |v8:3_st| (RMk1 val!4559)))))
 (let (($x3058 (not (= |v9:2_st| (RMk1 val!4558)))))
 (let (($x1294 (not (= |v10:1_st| (RMk1 val!4557)))))
 (let (($x2915 (not (= |v11:0_st| (RMk1 val!4556)))))
 (and $x2915 $x1294 $x3058 $x1367 $x2005 $x1346 $x1272 $x1161 $x2477))))))))))))))))))))))))))))))))))))))))))))))))))))))))))))))))))))))))))))))))))))))))))))))))))))))))))))))))))))))))))))))))))))))))))))))))))))))))
 )
 )
 )
 )
 )
 )
 )
 )
 )
 )
 )
 )
(check-sat)
